10
0 87 56 64 60 99 93 33 82 52 
87 0 32 43 65 53 20 40 61 40 
56 32 0 12 77 5 75 35 71 78 
64 43 12 0 78 75 77 31 0 13 
60 65 77 78 0 70 88 50 62 31 
99 53 5 75 70 0 80 82 39 97 
93 20 75 77 88 80 0 52 36 57 
33 40 35 31 50 82 52 0 29 57 
82 61 71 0 62 39 36 29 0 30 
52 40 78 13 31 97 57 57 30 0 
RRRBBBBRBR
